proyfinal/src/viki/013/andrea/andrea-localstore/experimentInOfficeAgust.take6/worker_11/dae579b4-bfdd-4301-96bc-610acc2c9c44.als.cnf.out
Reading from standard input... Use '--help' for help.
============================[ Problem Statistics ]=============================
|                                                                             |
|  Number of variables:         87638                                         |
|  Number of clauses:          161767                                         |
|  Parse time:                   0.04 s                                       |
|                                                                             |
============================[ Search Statistics ]==============================
| Conflicts |          ORIGINAL         |          LEARNT          | Progress |
|           |    Vars  Clauses Literals |    Limit  Clauses Lit/Cl |          |
===============================================================================
|       100 |   62330   105086   262587 |    38531       99      9 | 28.878 % |
|       250 |   62311   104918   262200 |    42384      225     87 | 28.900 % |
|       475 |   62311   104918   262200 |    46623      450     73 | 28.900 % |
|       812 |   62311   104918   262200 |    51285      787     71 | 28.900 % |
|      1318 |   62292   104845   262020 |    56414     1287     69 | 28.921 % |
|      2077 |   51077    72163   181110 |    62055     1868     64 | 41.718 % |
|      3216 |   51033    71967   180642 |    68260     2985     67 | 41.768 % |
|      4924 |   50852    71212   178821 |    75087     4542     62 | 41.975 % |
|      7486 |   50754    71141   178677 |    82595     7092     63 | 42.087 % |
|     11330 |   50546    69813   175541 |    90855    10414     60 | 42.324 % |
===============================================================================
restarts              : 62
conflicts             : 15450          (8797 /sec)
decisions             : 47980          (0.00 % random) (27318 /sec)
propagations          : 18651217       (10619197 /sec)
conflict literals     : 863527         (44.27 % deleted)
Memory used           : 35.25 MB
CPU time              : 1.75637 s

UNSATISFIABLE
